NAME : single
TYPE : ATSP
DIMENSION : 11
EDGE_WEIGHT_TYPE : EXPLICIT
EDGE_WEIGHT_FORMAT : FULL_MATRIX
EDGE_WEIGHT_SECTION
0 679 50164 937 819 536 526 587 254 136 134 
0 0 130 245 187 151 226 417 662 530 577 
0 130 0 169 297 209 283 470 657 541 569 
0 245 169 0 266 379 455 612 876 727 756 
0 187 297 266 0 380 437 605 833 736 738 
0 151 209 379 380 0 75 248 519 401 431 
0 226 283 455 437 75 0 188 403 290 326 
0 417 470 612 605 248 188 0 305 205 263 
0 662 657 876 833 519 403 305 0 176 86 
0 530 541 727 736 401 290 205 176 0 259 
0 577 569 756 738 431 326 263 86 259 0 
